set {
basis cc-pvdz
reference uhf
}
molecule {
0 3
   H       0        0        0
   H       0        0        1
}
optimize('B3LYP')
frequencies('B3LYP')
